Route #1: 71 62 99 98 89
Route #2: 40 67 88 44
Route #3: 75 93
Route #4: 100 61 23
Route #5: 14 49 6 37 87
Route #6: 66 84 90 68
Route #7: 92 9 86
Route #8: 1 70 54
Route #9: 82 60 59
Route #10: 83 51 81
Route #11: 21 56 94 80
Route #12: 50 91 52
Route #13: 32 33 53 73 95 24
Route #14: 69 16 55 76
Route #15: 27 97 19
Route #16: 4 13 74
Route #17: 3 77 63
Route #18: 18 10 39
Route #19: 17 8
Route #20: 30 85 11 79
Route #21: 15 22 41 20
Route #22: 57 72 36 29 43 45 2 7
Route #23: 5 12 58
Route #24: 34 64 96 48 26 47 38
Route #25: 28 42 78 65 25
Route #26: 31 46 35
Cost 27591.0000
Time 16.0008